Route #1: 67 7 11 38 12 16 63 43 41 42 64 22 74 4 
Route #2: 26 66 65 58 72 9 18 24 49 56 23 73 2 48 45 
Route #3: 40 39 31 55 25 50 44 3 51 33 1 28 47 30 
Route #4: 34 46 8 35 53 14 19 13 15 37 36 21 61 62 6 68 
Route #5: 75 52 27 29 5 69 71 60 70 20 57 54 59 10 32 17 
cost 887.532
